p cnf 245 1596
1 2 3 4 5 6 7 0
8 9 10 11 12 13 14 0
15 16 17 18 19 20 21 0
22 23 24 25 26 27 28 0
29 30 31 32 33 34 35 0
36 37 38 39 40 41 42 0
43 44 45 46 47 48 49 0
50 51 52 53 54 55 56 0
57 58 59 60 61 62 63 0
64 65 66 67 68 69 70 0
71 72 73 74 75 76 77 0
78 79 80 81 82 83 84 0
85 86 87 88 89 90 91 0
92 93 94 95 96 97 98 0
99 100 101 102 103 104 105 0
106 107 108 109 110 111 112 0
113 114 115 116 117 118 119 0
120 121 122 123 124 125 126 0
127 128 129 130 131 132 133 0
134 135 136 137 138 139 140 0
141 142 143 144 145 146 147 0
148 149 150 151 152 153 154 0
155 156 157 158 159 160 161 0
162 163 164 165 166 167 168 0
169 170 171 172 173 174 175 0
176 177 178 179 180 181 182 0
183 184 185 186 187 188 189 0
190 191 192 193 194 195 196 0
197 198 199 200 201 202 203 0
204 205 206 207 208 209 210 0
211 212 213 214 215 216 217 0
218 219 220 221 222 223 224 0
225 226 227 228 229 230 231 0
232 233 234 235 236 237 238 0
239 240 241 242 243 244 245 0
-1 -2 0
-1 -3 0
-1 -4 0
-1 -5 0
-1 -6 0
-1 -7 0
-2 -3 0
-2 -4 0
-2 -5 0
-2 -6 0
-2 -7 0
-3 -4 0
-3 -5 0
-3 -6 0
-3 -7 0
-4 -5 0
-4 -6 0
-4 -7 0
-5 -6 0
-5 -7 0
-6 -7 0
-8 -9 0
-8 -10 0
-8 -11 0
-8 -12 0
-8 -13 0
-8 -14 0
-9 -10 0
-9 -11 0
-9 -12 0
-9 -13 0
-9 -14 0
-10 -11 0
-10 -12 0
-10 -13 0
-10 -14 0
-11 -12 0
-11 -13 0
-11 -14 0
-12 -13 0
-12 -14 0
-13 -14 0
-15 -16 0
-15 -17 0
-15 -18 0
-15 -19 0
-15 -20 0
-15 -21 0
-16 -17 0
-16 -18 0
-16 -19 0
-16 -20 0
-16 -21 0
-17 -18 0
-17 -19 0
-17 -20 0
-17 -21 0
-18 -19 0
-18 -20 0
-18 -21 0
-19 -20 0
-19 -21 0
-20 -21 0
-22 -23 0
-22 -24 0
-22 -25 0
-22 -26 0
-22 -27 0
-22 -28 0
-23 -24 0
-23 -25 0
-23 -26 0
-23 -27 0
-23 -28 0
-24 -25 0
-24 -26 0
-24 -27 0
-24 -28 0
-25 -26 0
-25 -27 0
-25 -28 0
-26 -27 0
-26 -28 0
-27 -28 0
-29 -30 0
-29 -31 0
-29 -32 0
-29 -33 0
-29 -34 0
-29 -35 0
-30 -31 0
-30 -32 0
-30 -33 0
-30 -34 0
-30 -35 0
-31 -32 0
-31 -33 0
-31 -34 0
-31 -35 0
-32 -33 0
-32 -34 0
-32 -35 0
-33 -34 0
-33 -35 0
-34 -35 0
-36 -37 0
-36 -38 0
-36 -39 0
-36 -40 0
-36 -41 0
-36 -42 0
-37 -38 0
-37 -39 0
-37 -40 0
-37 -41 0
-37 -42 0
-38 -39 0
-38 -40 0
-38 -41 0
-38 -42 0
-39 -40 0
-39 -41 0
-39 -42 0
-40 -41 0
-40 -42 0
-41 -42 0
-43 -44 0
-43 -45 0
-43 -46 0
-43 -47 0
-43 -48 0
-43 -49 0
-44 -45 0
-44 -46 0
-44 -47 0
-44 -48 0
-44 -49 0
-45 -46 0
-45 -47 0
-45 -48 0
-45 -49 0
-46 -47 0
-46 -48 0
-46 -49 0
-47 -48 0
-47 -49 0
-48 -49 0
-50 -51 0
-50 -52 0
-50 -53 0
-50 -54 0
-50 -55 0
-50 -56 0
-51 -52 0
-51 -53 0
-51 -54 0
-51 -55 0
-51 -56 0
-52 -53 0
-52 -54 0
-52 -55 0
-52 -56 0
-53 -54 0
-53 -55 0
-53 -56 0
-54 -55 0
-54 -56 0
-55 -56 0
-57 -58 0
-57 -59 0
-57 -60 0
-57 -61 0
-57 -62 0
-57 -63 0
-58 -59 0
-58 -60 0
-58 -61 0
-58 -62 0
-58 -63 0
-59 -60 0
-59 -61 0
-59 -62 0
-59 -63 0
-60 -61 0
-60 -62 0
-60 -63 0
-61 -62 0
-61 -63 0
-62 -63 0
-64 -65 0
-64 -66 0
-64 -67 0
-64 -68 0
-64 -69 0
-64 -70 0
-65 -66 0
-65 -67 0
-65 -68 0
-65 -69 0
-65 -70 0
-66 -67 0
-66 -68 0
-66 -69 0
-66 -70 0
-67 -68 0
-67 -69 0
-67 -70 0
-68 -69 0
-68 -70 0
-69 -70 0
-71 -72 0
-71 -73 0
-71 -74 0
-71 -75 0
-71 -76 0
-71 -77 0
-72 -73 0
-72 -74 0
-72 -75 0
-72 -76 0
-72 -77 0
-73 -74 0
-73 -75 0
-73 -76 0
-73 -77 0
-74 -75 0
-74 -76 0
-74 -77 0
-75 -76 0
-75 -77 0
-76 -77 0
-78 -79 0
-78 -80 0
-78 -81 0
-78 -82 0
-78 -83 0
-78 -84 0
-79 -80 0
-79 -81 0
-79 -82 0
-79 -83 0
-79 -84 0
-80 -81 0
-80 -82 0
-80 -83 0
-80 -84 0
-81 -82 0
-81 -83 0
-81 -84 0
-82 -83 0
-82 -84 0
-83 -84 0
-85 -86 0
-85 -87 0
-85 -88 0
-85 -89 0
-85 -90 0
-85 -91 0
-86 -87 0
-86 -88 0
-86 -89 0
-86 -90 0
-86 -91 0
-87 -88 0
-87 -89 0
-87 -90 0
-87 -91 0
-88 -89 0
-88 -90 0
-88 -91 0
-89 -90 0
-89 -91 0
-90 -91 0
-92 -93 0
-92 -94 0
-92 -95 0
-92 -96 0
-92 -97 0
-92 -98 0
-93 -94 0
-93 -95 0
-93 -96 0
-93 -97 0
-93 -98 0
-94 -95 0
-94 -96 0
-94 -97 0
-94 -98 0
-95 -96 0
-95 -97 0
-95 -98 0
-96 -97 0
-96 -98 0
-97 -98 0
-99 -100 0
-99 -101 0
-99 -102 0
-99 -103 0
-99 -104 0
-99 -105 0
-100 -101 0
-100 -102 0
-100 -103 0
-100 -104 0
-100 -105 0
-101 -102 0
-101 -103 0
-101 -104 0
-101 -105 0
-102 -103 0
-102 -104 0
-102 -105 0
-103 -104 0
-103 -105 0
-104 -105 0
-106 -107 0
-106 -108 0
-106 -109 0
-106 -110 0
-106 -111 0
-106 -112 0
-107 -108 0
-107 -109 0
-107 -110 0
-107 -111 0
-107 -112 0
-108 -109 0
-108 -110 0
-108 -111 0
-108 -112 0
-109 -110 0
-109 -111 0
-109 -112 0
-110 -111 0
-110 -112 0
-111 -112 0
-113 -114 0
-113 -115 0
-113 -116 0
-113 -117 0
-113 -118 0
-113 -119 0
-114 -115 0
-114 -116 0
-114 -117 0
-114 -118 0
-114 -119 0
-115 -116 0
-115 -117 0
-115 -118 0
-115 -119 0
-116 -117 0
-116 -118 0
-116 -119 0
-117 -118 0
-117 -119 0
-118 -119 0
-120 -121 0
-120 -122 0
-120 -123 0
-120 -124 0
-120 -125 0
-120 -126 0
-121 -122 0
-121 -123 0
-121 -124 0
-121 -125 0
-121 -126 0
-122 -123 0
-122 -124 0
-122 -125 0
-122 -126 0
-123 -124 0
-123 -125 0
-123 -126 0
-124 -125 0
-124 -126 0
-125 -126 0
-127 -128 0
-127 -129 0
-127 -130 0
-127 -131 0
-127 -132 0
-127 -133 0
-128 -129 0
-128 -130 0
-128 -131 0
-128 -132 0
-128 -133 0
-129 -130 0
-129 -131 0
-129 -132 0
-129 -133 0
-130 -131 0
-130 -132 0
-130 -133 0
-131 -132 0
-131 -133 0
-132 -133 0
-134 -135 0
-134 -136 0
-134 -137 0
-134 -138 0
-134 -139 0
-134 -140 0
-135 -136 0
-135 -137 0
-135 -138 0
-135 -139 0
-135 -140 0
-136 -137 0
-136 -138 0
-136 -139 0
-136 -140 0
-137 -138 0
-137 -139 0
-137 -140 0
-138 -139 0
-138 -140 0
-139 -140 0
-141 -142 0
-141 -143 0
-141 -144 0
-141 -145 0
-141 -146 0
-141 -147 0
-142 -143 0
-142 -144 0
-142 -145 0
-142 -146 0
-142 -147 0
-143 -144 0
-143 -145 0
-143 -146 0
-143 -147 0
-144 -145 0
-144 -146 0
-144 -147 0
-145 -146 0
-145 -147 0
-146 -147 0
-148 -149 0
-148 -150 0
-148 -151 0
-148 -152 0
-148 -153 0
-148 -154 0
-149 -150 0
-149 -151 0
-149 -152 0
-149 -153 0
-149 -154 0
-150 -151 0
-150 -152 0
-150 -153 0
-150 -154 0
-151 -152 0
-151 -153 0
-151 -154 0
-152 -153 0
-152 -154 0
-153 -154 0
-155 -156 0
-155 -157 0
-155 -158 0
-155 -159 0
-155 -160 0
-155 -161 0
-156 -157 0
-156 -158 0
-156 -159 0
-156 -160 0
-156 -161 0
-157 -158 0
-157 -159 0
-157 -160 0
-157 -161 0
-158 -159 0
-158 -160 0
-158 -161 0
-159 -160 0
-159 -161 0
-160 -161 0
-162 -163 0
-162 -164 0
-162 -165 0
-162 -166 0
-162 -167 0
-162 -168 0
-163 -164 0
-163 -165 0
-163 -166 0
-163 -167 0
-163 -168 0
-164 -165 0
-164 -166 0
-164 -167 0
-164 -168 0
-165 -166 0
-165 -167 0
-165 -168 0
-166 -167 0
-166 -168 0
-167 -168 0
-169 -170 0
-169 -171 0
-169 -172 0
-169 -173 0
-169 -174 0
-169 -175 0
-170 -171 0
-170 -172 0
-170 -173 0
-170 -174 0
-170 -175 0
-171 -172 0
-171 -173 0
-171 -174 0
-171 -175 0
-172 -173 0
-172 -174 0
-172 -175 0
-173 -174 0
-173 -175 0
-174 -175 0
-176 -177 0
-176 -178 0
-176 -179 0
-176 -180 0
-176 -181 0
-176 -182 0
-177 -178 0
-177 -179 0
-177 -180 0
-177 -181 0
-177 -182 0
-178 -179 0
-178 -180 0
-178 -181 0
-178 -182 0
-179 -180 0
-179 -181 0
-179 -182 0
-180 -181 0
-180 -182 0
-181 -182 0
-183 -184 0
-183 -185 0
-183 -186 0
-183 -187 0
-183 -188 0
-183 -189 0
-184 -185 0
-184 -186 0
-184 -187 0
-184 -188 0
-184 -189 0
-185 -186 0
-185 -187 0
-185 -188 0
-185 -189 0
-186 -187 0
-186 -188 0
-186 -189 0
-187 -188 0
-187 -189 0
-188 -189 0
-190 -191 0
-190 -192 0
-190 -193 0
-190 -194 0
-190 -195 0
-190 -196 0
-191 -192 0
-191 -193 0
-191 -194 0
-191 -195 0
-191 -196 0
-192 -193 0
-192 -194 0
-192 -195 0
-192 -196 0
-193 -194 0
-193 -195 0
-193 -196 0
-194 -195 0
-194 -196 0
-195 -196 0
-197 -198 0
-197 -199 0
-197 -200 0
-197 -201 0
-197 -202 0
-197 -203 0
-198 -199 0
-198 -200 0
-198 -201 0
-198 -202 0
-198 -203 0
-199 -200 0
-199 -201 0
-199 -202 0
-199 -203 0
-200 -201 0
-200 -202 0
-200 -203 0
-201 -202 0
-201 -203 0
-202 -203 0
-204 -205 0
-204 -206 0
-204 -207 0
-204 -208 0
-204 -209 0
-204 -210 0
-205 -206 0
-205 -207 0
-205 -208 0
-205 -209 0
-205 -210 0
-206 -207 0
-206 -208 0
-206 -209 0
-206 -210 0
-207 -208 0
-207 -209 0
-207 -210 0
-208 -209 0
-208 -210 0
-209 -210 0
-211 -212 0
-211 -213 0
-211 -214 0
-211 -215 0
-211 -216 0
-211 -217 0
-212 -213 0
-212 -214 0
-212 -215 0
-212 -216 0
-212 -217 0
-213 -214 0
-213 -215 0
-213 -216 0
-213 -217 0
-214 -215 0
-214 -216 0
-214 -217 0
-215 -216 0
-215 -217 0
-216 -217 0
-218 -219 0
-218 -220 0
-218 -221 0
-218 -222 0
-218 -223 0
-218 -224 0
-219 -220 0
-219 -221 0
-219 -222 0
-219 -223 0
-219 -224 0
-220 -221 0
-220 -222 0
-220 -223 0
-220 -224 0
-221 -222 0
-221 -223 0
-221 -224 0
-222 -223 0
-222 -224 0
-223 -224 0
-225 -226 0
-225 -227 0
-225 -228 0
-225 -229 0
-225 -230 0
-225 -231 0
-226 -227 0
-226 -228 0
-226 -229 0
-226 -230 0
-226 -231 0
-227 -228 0
-227 -229 0
-227 -230 0
-227 -231 0
-228 -229 0
-228 -230 0
-228 -231 0
-229 -230 0
-229 -231 0
-230 -231 0
-232 -233 0
-232 -234 0
-232 -235 0
-232 -236 0
-232 -237 0
-232 -238 0
-233 -234 0
-233 -235 0
-233 -236 0
-233 -237 0
-233 -238 0
-234 -235 0
-234 -236 0
-234 -237 0
-234 -238 0
-235 -236 0
-235 -237 0
-235 -238 0
-236 -237 0
-236 -238 0
-237 -238 0
-239 -240 0
-239 -241 0
-239 -242 0
-239 -243 0
-239 -244 0
-239 -245 0
-240 -241 0
-240 -242 0
-240 -243 0
-240 -244 0
-240 -245 0
-241 -242 0
-241 -243 0
-241 -244 0
-241 -245 0
-242 -243 0
-242 -244 0
-242 -245 0
-243 -244 0
-243 -245 0
-244 -245 0
-7 -215 0
-6 -216 0
-4 -212 0
-4 -214 0
-3 -211 0
-1 -212 0
-4 -217 0
-3 -217 0
-2 -211 0
-4 -211 0
-7 -213 0
-2 -215 0
-4 -216 0
-7 -212 0
-10 -159 0
-8 -160 0
-14 -157 0
-9 -161 0
-11 -160 0
-9 -157 0
-12 -157 0
-10 -156 0
-8 -158 0
-8 -161 0
-8 -159 0
-10 -158 0
-8 -157 0
-8 -156 0
-8 -206 0
-14 -210 0
-12 -206 0
-11 -206 0
-9 -205 0
-13 -207 0
-8 -208 0
-9 -206 0
-12 -209 0
-14 -207 0
-10 -209 0
-11 -210 0
-14 -209 0
-13 -210 0
-14 -238 0
-10 -237 0
-10 -236 0
-12 -234 0
-11 -233 0
-14 -233 0
-10 -234 0
-11 -232 0
-13 -237 0
-9 -232 0
-8 -234 0
-11 -237 0
-12 -235 0
-12 -232 0
-15 -49 0
-16 -43 0
-20 -44 0
-20 -49 0
-21 -44 0
-19 -44 0
-18 -47 0
-19 -43 0
-15 -45 0
-17 -48 0
-16 -44 0
-17 -43 0
-18 -46 0
-21 -46 0
-16 -64 0
-18 -68 0
-18 -66 0
-18 -65 0
-20 -64 0
-17 -65 0
-17 -69 0
-19 -66 0
-17 -67 0
-18 -67 0
-15 -70 0
-21 -69 0
-19 -70 0
-21 -68 0
-17 -128 0
-19 -127 0
-19 -132 0
-16 -128 0
-15 -130 0
-18 -133 0
-20 -132 0
-19 -128 0
-19 -131 0
-18 -132 0
-16 -131 0
-21 -132 0
-17 -127 0
-16 -127 0
-21 -146 0
-20 -147 0
-17 -142 0
-19 -142 0
-21 -147 0
-20 -146 0
-17 -144 0
-15 -143 0
-20 -145 0
-17 -145 0
-15 -145 0
-19 -147 0
-21 -145 0
-16 -144 0
-24 -106 0
-28 -110 0
-24 -108 0
-28 -109 0
-25 -110 0
-24 -107 0
-27 -111 0
-28 -112 0
-27 -106 0
-26 -110 0
-23 -109 0
-22 -108 0
-24 -110 0
-27 -107 0
-24 -173 0
-26 -171 0
-26 -172 0
-25 -174 0
-26 -170 0
-23 -169 0
-25 -171 0
-22 -171 0
-22 -175 0
-22 -172 0
-28 -173 0
-23 -173 0
-28 -169 0
-25 -173 0
-27 -192 0
-25 -195 0
-24 -190 0
-27 -191 0
-25 -194 0
-27 -194 0
-28 -192 0
-28 -196 0
-26 -194 0
-22 -191 0
-26 -193 0
-23 -192 0
-25 -192 0
-26 -191 0
-33 -106 0
-33 -110 0
-35 -111 0
-35 -108 0
-34 -112 0
-34 -106 0
-29 -112 0
-32 -107 0
-31 -111 0
-31 -110 0
-32 -109 0
-30 -110 0
-31 -106 0
-29 -110 0
-32 -182 0
-31 -177 0
-32 -181 0
-31 -176 0
-34 -182 0
-35 -181 0
-29 -179 0
-33 -180 0
-31 -182 0
-30 -176 0
-35 -178 0
-32 -179 0
-31 -181 0
-32 -178 0
-39 -102 0
-38 -103 0
-41 -99 0
-42 -99 0
-41 -101 0
-39 -101 0
-41 -105 0
-37 -105 0
-39 -99 0
-42 -102 0
-37 -103 0
-42 -101 0
-39 -100 0
-36 -102 0
-36 -139 0
-42 -136 0
-38 -136 0
-37 -139 0
-36 -134 0
-36 -137 0
-37 -135 0
-37 -138 0
-41 -139 0
-39 -135 0
-41 -136 0
-36 -138 0
-42 -137 0
-36 -140 0
-37 -146 0
-39 -145 0
-38 -141 0
-37 -142 0
-36 -142 0
-38 -147 0
-40 -143 0
-41 -141 0
-38 -143 0
-42 -146 0
-39 -144 0
-39 -147 0
-40 -145 0
-42 -143 0
-37 -176 0
-36 -179 0
-37 -179 0
-37 -182 0
-42 -178 0
-42 -179 0
-36 -178 0
-39 -181 0
-39 -177 0
-41 -179 0
-40 -177 0
-36 -176 0
-37 -178 0
-36 -177 0
-49 -110 0
-46 -111 0
-45 -112 0
-44 -111 0
-47 -111 0
-49 -111 0
-43 -109 0
-49 -109 0
-45 -109 0
-48 -109 0
-49 -112 0
-43 -112 0
-48 -106 0
-44 -109 0
-43 -223 0
-47 -219 0
-43 -224 0
-44 -220 0
-44 -222 0
-46 -220 0
-49 -220 0
-45 -222 0
-47 -223 0
-43 -220 0
-49 -223 0
-49 -221 0
-46 -221 0
-43 -221 0
-56 -118 0
-50 -117 0
-51 -115 0
-56 -119 0
-56 -116 0
-56 -113 0
-53 -116 0
-51 -118 0
-55 -116 0
-54 -119 0
-53 -114 0
-53 -113 0
-55 -113 0
-52 -119 0
-53 -172 0
-53 -171 0
-55 -169 0
-56 -169 0
-56 -174 0
-55 -172 0
-55 -170 0
-50 -174 0
-50 -175 0
-53 -170 0
-56 -173 0
-56 -175 0
-50 -170 0
-55 -175 0
-53 -190 0
-54 -196 0
-56 -190 0
-51 -196 0
-55 -191 0
-53 -192 0
-51 -195 0
-50 -190 0
-52 -192 0
-50 -191 0
-55 -195 0
-54 -190 0
-51 -191 0
-53 -191 0
-61 -106 0
-60 -107 0
-57 -109 0
-57 -108 0
-62 -107 0
-63 -110 0
-58 -111 0
-59 -109 0
-61 -107 0
-58 -110 0
-59 -111 0
-61 -110 0
-59 -107 0
-60 -111 0
-59 -141 0
-57 -147 0
-63 -141 0
-59 -143 0
-57 -141 0
-61 -142 0
-61 -144 0
-58 -145 0
-61 -147 0
-58 -146 0
-58 -143 0
-58 -144 0
-58 -142 0
-62 -141 0
-66 -181 0
-67 -178 0
-68 -181 0
-64 -178 0
-66 -180 0
-70 -177 0
-65 -181 0
-70 -176 0
-67 -177 0
-65 -177 0
-66 -177 0
-65 -182 0
-68 -182 0
-67 -182 0
-66 -199 0
-70 -201 0
-69 -198 0
-66 -198 0
-64 -198 0
-66 -197 0
-64 -197 0
-65 -202 0
-65 -198 0
-67 -201 0
-65 -201 0
-65 -200 0
-68 -197 0
-69 -200 0
-70 -232 0
-68 -233 0
-68 -238 0
-68 -237 0
-66 -234 0
-69 -237 0
-70 -234 0
-64 -236 0
-65 -235 0
-65 -234 0
-65 -238 0
-66 -233 0
-65 -236 0
-67 -236 0
-71 -84 0
-72 -83 0
-74 -84 0
-75 -78 0
-73 -80 0
-72 -80 0
-76 -78 0
-76 -84 0
-71 -79 0
-76 -81 0
-72 -84 0
-72 -82 0
-77 -79 0
-75 -80 0
-75 -146 0
-75 -144 0
-75 -141 0
-71 -145 0
-74 -143 0
-74 -144 0
-76 -147 0
-73 -143 0
-76 -145 0
-72 -146 0
-74 -142 0
-77 -144 0
-74 -147 0
-75 -143 0
-77 -151 0
-74 -152 0
-71 -152 0
-76 -154 0
-77 -152 0
-71 -154 0
-73 -149 0
-74 -148 0
-74 -153 0
-72 -153 0
-77 -150 0
-75 -153 0
-72 -154 0
-73 -154 0
-73 -173 0
-75 -174 0
-75 -175 0
-75 -171 0
-74 -175 0
-74 -171 0
-74 -172 0
-75 -170 0
-76 -173 0
-72 -172 0
-72 -175 0
-71 -174 0
-75 -172 0
-73 -172 0
-76 -213 0
-76 -215 0
-73 -211 0
-77 -212 0
-72 -211 0
-75 -212 0
-74 -215 0
-76 -216 0
-72 -214 0
-71 -216 0
-76 -217 0
-73 -213 0
-75 -213 0
-75 -215 0
-81 -87 0
-79 -85 0
-78 -91 0
-78 -88 0
-80 -91 0
-79 -87 0
-82 -85 0
-80 -86 0
-82 -88 0
-81 -88 0
-82 -89 0
-84 -86 0
-83 -89 0
-83 -85 0
-84 -164 0
-84 -168 0
-82 -167 0
-80 -168 0
-82 -165 0
-82 -162 0
-84 -162 0
-81 -164 0
-83 -163 0
-79 -168 0
-80 -164 0
-79 -167 0
-78 -163 0
-83 -164 0
-79 -219 0
-83 -223 0
-83 -224 0
-80 -222 0
-81 -222 0
-82 -223 0
-81 -220 0
-78 -221 0
-81 -224 0
-79 -220 0
-81 -221 0
-82 -219 0
-81 -223 0
-82 -220 0
-86 -100 0
-87 -102 0
-88 -105 0
-85 -104 0
-86 -102 0
-91 -104 0
-88 -104 0
-90 -105 0
-87 -104 0
-85 -102 0
-91 -100 0
-90 -104 0
-85 -99 0
-90 -102 0
-95 -149 0
-97 -152 0
-93 -150 0
-94 -153 0
-95 -152 0
-94 -150 0
-96 -152 0
-92 -148 0
-93 -152 0
-97 -148 0
-96 -150 0
-93 -148 0
-98 -150 0
-98 -149 0
-95 -177 0
-95 -182 0
-92 -177 0
-94 -179 0
-93 -178 0
-94 -181 0
-98 -182 0
-98 -178 0
-94 -182 0
-92 -181 0
-98 -180 0
-95 -176 0
-93 -181 0
-93 -177 0
-96 -200 0
-98 -197 0
-95 -198 0
-97 -203 0
-92 -202 0
-96 -202 0
-93 -203 0
-97 -202 0
-93 -198 0
-95 -201 0
-93 -202 0
-94 -197 0
-98 -203 0
-93 -200 0
-95 -212 0
-98 -217 0
-94 -215 0
-97 -215 0
-97 -217 0
-96 -215 0
-92 -212 0
-95 -216 0
-94 -212 0
-98 -216 0
-94 -216 0
-98 -212 0
-98 -211 0
-92 -215 0
-95 -241 0
-98 -240 0
-92 -241 0
-93 -241 0
-98 -239 0
-97 -241 0
-98 -242 0
-92 -242 0
-96 -243 0
-94 -241 0
-95 -243 0
-94 -244 0
-95 -240 0
-93 -239 0
-105 -110 0
-99 -109 0
-100 -110 0
-100 -112 0
-105 -106 0
-102 -111 0
-101 -112 0
-102 -112 0
-105 -112 0
-103 -108 0
-103 -112 0
-101 -110 0
-99 -112 0
-105 -109 0
-112 -166 0
-108 -167 0
-110 -168 0
-106 -162 0
-106 -163 0
-112 -164 0
-107 -164 0
-109 -163 0
-111 -163 0
-111 -162 0
-106 -168 0
-106 -166 0
-112 -165 0
-107 -163 0
-114 -245 0
-118 -240 0
-113 -241 0
-114 -241 0
-115 -239 0
-119 -240 0
-115 -240 0
-113 -239 0
-117 -243 0
-118 -241 0
-119 -245 0
-115 -242 0
-116 -239 0
-115 -244 0
-123 -138 0
-121 -134 0
-124 -140 0
-124 -138 0
-121 -135 0
-124 -136 0
-124 -137 0
-121 -140 0
-126 -136 0
-121 -138 0
-124 -139 0
-122 -138 0
-123 -134 0
-123 -139 0
-125 -153 0
-123 -154 0
-125 -150 0
-123 -150 0
-124 -148 0
-122 -152 0
-121 -153 0
-120 -153 0
-125 -151 0
-120 -152 0
-126 -151 0
-120 -148 0
-124 -151 0
-120 -154 0
-123 -215 0
-123 -217 0
-123 -214 0
-123 -212 0
-120 -212 0
-124 -217 0
-126 -212 0
-121 -211 0
-122 -211 0
-125 -216 0
-121 -213 0
-122 -213 0
-126 -216 0
-122 -212 0
-129 -165 0
-133 -162 0
-128 -162 0
-128 -166 0
-129 -164 0
-132 -163 0
-131 -166 0
-129 -163 0
-133 -163 0
-131 -164 0
-132 -168 0
-128 -165 0
-133 -168 0
-131 -165 0
-132 -228 0
-128 -229 0
-130 -228 0
-130 -226 0
-132 -227 0
-127 -230 0
-129 -229 0
-132 -226 0
-132 -231 0
-128 -230 0
-132 -230 0
-127 -225 0
-131 -226 0
-133 -231 0
-151 -190 0
-153 -195 0
-149 -194 0
-153 -196 0
-153 -190 0
-152 -190 0
-151 -191 0
-153 -192 0
-152 -194 0
-152 -195 0
-151 -196 0
-150 -192 0
-154 -193 0
-152 -191 0
-150 -232 0
-153 -232 0
-150 -236 0
-154 -234 0
-154 -232 0
-148 -232 0
-151 -238 0
-152 -234 0
-150 -237 0
-149 -234 0
-154 -237 0
-154 -238 0
-152 -236 0
-152 -232 0
-157 -162 0
-158 -165 0
-161 -164 0
-155 -166 0
-161 -166 0
-161 -165 0
-161 -162 0
-157 -166 0
-159 -162 0
-156 -167 0
-157 -168 0
-160 -162 0
-155 -165 0
-159 -164 0
-166 -195 0
-165 -192 0
-163 -194 0
-165 -193 0
-167 -192 0
-168 -196 0
-166 -190 0
-164 -194 0
-163 -196 0
-162 -196 0
-162 -192 0
-163 -191 0
-168 -195 0
-168 -192 0
-166 -206 0
-164 -206 0
-167 -204 0
-165 -208 0
-164 -209 0
-165 -207 0
-167 -208 0
-166 -208 0
-168 -204 0
-164 -204 0
-166 -210 0
-165 -204 0
-166 -207 0
-167 -209 0
-167 -222 0
-168 -220 0
-165 -223 0
-162 -222 0
-166 -218 0
-168 -223 0
-163 -220 0
-165 -219 0
-168 -222 0
-163 -221 0
-166 -222 0
-164 -223 0
-166 -220 0
-164 -218 0
-169 -191 0
-173 -190 0
-174 -191 0
-172 -195 0
-172 -196 0
-169 -195 0
-173 -196 0
-170 -195 0
-170 -194 0
-169 -196 0
-173 -194 0
-172 -193 0
-172 -194 0
-171 -196 0
-188 -233 0
-188 -235 0
-183 -233 0
-184 -234 0
-185 -236 0
-187 -234 0
-185 -234 0
-189 -234 0
-185 -237 0
-186 -234 0
-188 -238 0
-185 -232 0
-189 -232 0
-188 -232 0
-192 -211 0
-196 -216 0
-193 -211 0
-193 -216 0
-195 -216 0
-195 -217 0
-190 -216 0
-194 -217 0
-191 -214 0
-192 -217 0
-191 -211 0
-191 -215 0
-190 -217 0
-192 -212 0
-209 -242 0
-208 -244 0
-210 -245 0
-210 -244 0
-205 -242 0
-207 -242 0
-206 -244 0
-208 -243 0
-207 -243 0
-210 -240 0
-210 -241 0
-210 -242 0
-207 -244 0
-208 -242 0
